SECTION Graph 
Nodes 547
Edges 1115
E 1 491 21
E 1 492 19
E 2 3 14
E 2 493 19
E 3 4 1
E 3 494 19
E 4 495 19
E 5 6 1
E 6 7 14
E 7 8 1
E 8 199 31
E 8 209 31
E 9 10 1
E 9 481 19
E 9 487 7
E 9 492 2
E 10 11 14
E 10 483 19
E 10 493 2
E 11 12 1
E 11 488 19
E 11 494 2
E 12 489 19
E 12 495 2
E 13 14 1
E 13 467 19
E 13 473 7
E 13 481 2
E 14 15 14
E 14 469 19
E 14 483 2
E 15 16 1
E 15 475 19
E 15 488 2
E 16 477 19
E 16 489 2
E 17 18 1
E 17 437 64
E 17 467 2
E 18 19 14
E 18 438 64
E 18 469 2
E 19 20 1
E 19 443 64
E 19 475 2
E 20 445 64
E 20 477 2
E 21 22 1
E 21 463 30
E 21 478 2
E 21 484 5
E 22 23 14
E 22 479 2
E 22 485 5
E 23 24 1
E 23 486 2
E 23 490 5
E 24 487 2
E 24 491 5
E 24 492 7
E 25 26 1
E 25 464 2
E 25 466 2
E 26 27 14
E 26 465 2
E 26 468 2
E 27 28 1
E 27 472 2
E 27 474 2
E 28 473 2
E 28 476 2
E 28 481 7
E 29 30 1
E 29 425 66
E 29 436 45
E 29 464 19
E 30 31 14
E 30 426 66
E 30 465 19
E 31 32 1
E 31 433 66
E 31 472 19
E 32 434 66
E 32 467 7
E 32 473 19
E 33 34 1
E 33 42 7
E 33 435 23
E 33 454 17
E 34 436 23
E 34 450 8
E 34 455 17
E 35 36 1
E 35 405 89
E 35 450 6
E 35 458 6
E 36 406 89
E 36 459 6
E 36 466 30
E 37 207 11
E 37 448 16
E 37 450 6
E 37 458 6
E 38 208 5
E 38 432 62
E 38 484 37
E 39 40 1
E 39 378 89
E 39 420 30
E 39 439 6
E 40 41 14
E 40 379 89
E 40 440 6
E 41 42 1
E 41 429 23
E 41 447 6
E 42 431 23
E 42 448 6
E 43 44 1
E 43 421 19
E 44 45 14
E 44 422 19
E 45 46 1
E 45 430 14
E 46 432 14
E 47 48 1
E 47 413 11
E 47 416 7
E 47 421 2
E 48 49 14
E 48 414 11
E 48 422 2
E 49 50 1
E 49 423 11
E 49 427 2
E 50 424 11
E 50 428 2
E 50 441 30
E 51 52 1
E 51 387 19
E 51 397 7
E 51 408 2
E 52 53 14
E 52 389 19
E 52 410 2
E 53 54 1
E 53 400 19
E 53 417 2
E 54 402 19
E 54 418 2
E 55 56 1
E 55 59 27
E 55 377 22
E 55 387 2
E 56 57 14
E 56 60 27
E 56 389 2
E 57 58 1
E 57 61 27
E 57 400 2
E 58 62 27
E 58 402 2
E 59 60 1
E 59 368 19
E 59 373 7
E 60 61 14
E 60 369 19
E 61 62 1
E 61 374 19
E 62 375 19
E 63 64 1
E 63 356 16
E 63 359 7
E 63 368 2
E 64 65 14
E 64 357 16
E 64 369 2
E 65 66 1
E 65 366 16
E 65 374 2
E 66 367 16
E 66 375 2
E 67 68 1
E 67 340 19
E 67 345 7
E 67 354 2
E 68 69 14
E 68 342 19
E 68 355 2
E 69 70 1
E 69 346 19
E 69 362 2
E 70 348 19
E 70 363 2
E 71 72 1
E 71 340 2
E 72 73 14
E 72 342 2
E 73 74 1
E 73 346 2
E 74 348 2
E 75 76 1
E 75 403 2
E 76 77 14
E 76 404 2
E 77 78 1
E 77 415 2
E 78 416 2
E 78 421 7
E 79 80 1
E 79 333 168
E 79 383 2
E 79 386 2
E 80 81 14
E 80 385 2
E 80 388 2
E 81 82 1
E 81 396 2
E 81 399 2
E 82 397 2
E 82 401 2
E 82 408 7
E 83 84 1
E 83 323 168
E 83 376 2
E 83 380 7
E 84 85 14
E 84 377 2
E 84 381 7
E 85 86 1
E 85 372 29
E 85 396 19
E 86 373 29
E 86 387 7
E 86 397 19
E 87 88 1
E 87 303 145
E 87 349 2
E 87 352 1
E 88 89 14
E 88 351 2
E 88 353 1
E 89 90 1
E 89 358 2
E 89 360 1
E 90 359 2
E 90 361 1
E 90 368 7
E 91 92 1
E 91 277 145
E 91 338 2
E 91 341 3
E 92 93 14
E 92 339 2
E 92 343 3
E 93 94 1
E 93 344 2
E 93 347 3
E 94 345 2
E 94 350 3
E 94 354 7
E 95 96 1
E 95 229 170
E 95 336 4
E 96 97 14
E 96 337 4
E 97 98 1
E 97 344 19
E 98 340 7
E 98 345 19
E 99 100 1
E 99 273 7
E 99 289 1
E 99 305 18
E 100 101 14
E 100 291 1
E 100 307 18
E 101 102 1
E 101 301 1
E 101 317 18
E 102 303 1
E 102 319 18
E 102 352 145
E 103 104 1
E 103 242 15
E 103 247 7
E 103 262 2
E 104 105 14
E 104 243 15
E 104 265 2
E 105 106 1
E 105 256 15
E 105 274 2
E 106 258 15
E 106 277 2
E 106 338 145
E 107 108 1
E 107 327 7
E 107 328 7
E 108 109 14
E 108 329 7
E 109 110 1
E 109 332 7
E 109 334 12
E 110 333 7
E 110 335 12
E 110 392 168
E 111 112 1
E 111 311 7
E 111 312 7
E 111 324 12
E 112 113 14
E 112 313 7
E 112 326 12
E 113 114 1
E 113 322 7
E 113 330 12
E 114 323 7
E 114 331 12
E 114 380 168
E 115 116 1
E 115 275 7
E 115 288 2
E 115 308 21
E 116 117 14
E 116 290 2
E 116 310 21
E 117 118 1
E 117 300 2
E 117 320 21
E 118 302 2
E 118 321 21
E 118 370 168
E 119 120 1
E 119 252 7
E 119 260 2
E 119 278 15
E 120 121 14
E 120 264 2
E 120 279 15
E 121 122 1
E 121 272 2
E 121 294 15
E 122 276 2
E 122 295 15
E 123 124 1
E 123 228 7
E 123 239 1
E 123 257 18
E 124 125 14
E 124 241 1
E 124 261 18
E 125 126 1
E 125 253 1
E 125 270 18
E 126 255 1
E 126 267 7
E 126 273 18
E 127 128 1
E 127 219 7
E 127 231 15
E 128 129 14
E 128 233 15
E 129 130 1
E 129 227 2
E 129 245 15
E 130 229 2
E 130 242 7
E 130 247 15
E 131 132 1
E 131 135 21
E 132 133 14
E 132 136 21
E 133 134 1
E 133 137 21
E 134 138 21
E 135 136 1
E 135 314 12
E 136 137 14
E 136 315 12
E 137 138 1
E 137 325 12
E 138 327 12
E 138 334 22
E 139 140 1
E 139 304 2
E 139 314 9
E 140 141 14
E 140 306 2
E 140 315 9
E 141 142 1
E 141 316 2
E 141 325 9
E 142 318 2
E 142 324 7
E 142 327 9
E 143 144 1
E 143 246 30
E 143 281 2
E 143 292 9
E 144 145 14
E 144 285 2
E 144 293 9
E 145 146 1
E 145 296 2
E 145 309 9
E 146 298 2
E 146 308 7
E 146 311 9
E 147 148 1
E 147 174 30
E 147 236 19
E 147 259 2
E 148 149 14
E 148 238 19
E 148 263 2
E 149 150 1
E 149 250 19
E 149 271 2
E 150 252 19
E 150 275 2
E 150 288 7
E 151 152 1
E 151 178 30
E 151 221 19
E 151 236 2
E 152 153 14
E 152 223 19
E 152 238 2
E 153 154 1
E 153 225 19
E 153 250 2
E 154 228 19
E 154 252 2
E 154 260 7
E 155 156 1
E 155 182 30
E 155 216 19
E 155 220 1
E 156 157 14
E 156 217 19
E 156 222 1
E 157 158 1
E 157 218 19
E 157 224 1
E 158 219 19
E 158 226 1
E 158 237 7
E 159 160 1
E 159 186 30
E 159 216 2
E 160 161 14
E 160 217 2
E 161 162 1
E 161 218 2
E 162 219 2
E 162 227 22
E 163 164 1
E 163 230 19
E 164 165 14
E 164 232 19
E 165 166 1
E 165 244 19
E 166 246 19
E 166 304 30
E 167 168 1
E 167 171 21
E 167 190 7
E 167 230 2
E 168 169 14
E 168 172 21
E 168 232 2
E 169 170 1
E 169 173 21
E 169 244 2
E 170 174 21
E 170 246 2
E 170 281 30
E 171 172 1
E 171 175 21
E 171 194 7
E 172 173 14
E 172 176 21
E 173 174 1
E 173 177 21
E 174 178 21
E 175 176 1
E 175 198 7
E 175 212 20
E 176 177 14
E 176 213 20
E 177 178 1
E 177 214 20
E 178 215 20
E 179 180 1
E 179 183 21
E 179 202 7
E 179 212 1
E 180 181 14
E 180 184 21
E 180 213 1
E 181 182 1
E 181 185 21
E 181 214 1
E 182 186 21
E 182 215 1
E 183 184 1
E 183 206 7
E 184 185 14
E 185 186 1
E 187 188 1
E 187 191 21
E 188 189 14
E 188 192 21
E 189 190 1
E 189 193 21
E 190 194 21
E 191 192 1
E 191 195 21
E 192 193 14
E 192 196 21
E 193 194 1
E 193 197 21
E 194 198 21
E 195 196 1
E 195 199 21
E 196 197 14
E 196 209 20
E 197 198 1
E 197 210 20
E 198 211 20
E 199 200 1
E 199 203 21
E 200 201 14
E 200 204 21
E 200 209 1
E 201 202 1
E 201 205 21
E 201 210 1
E 202 206 21
E 202 211 1
E 203 204 1
E 204 205 14
E 205 206 1
E 207 208 2
E 207 455 8
E 207 460 6
E 208 457 8
E 208 462 6
E 209 210 14
E 210 211 1
E 211 212 7
E 212 213 1
E 213 214 14
E 214 215 1
E 215 220 30
E 216 217 1
E 217 218 14
E 218 219 1
E 220 221 1
E 220 222 1
E 221 223 1
E 222 223 1
E 222 224 14
E 223 225 14
E 224 225 1
E 224 226 1
E 225 228 1
E 226 228 1
E 226 239 7
E 227 229 1
E 230 232 1
E 231 233 1
E 231 234 2
E 232 244 14
E 233 235 2
E 233 245 14
E 234 235 1
E 234 237 2
E 235 240 2
E 235 248 14
E 236 238 1
E 237 239 1
E 237 240 1
E 238 250 14
E 239 241 1
E 240 241 1
E 240 251 14
E 241 253 14
E 242 243 1
E 243 256 14
E 244 246 1
E 245 247 1
E 245 248 2
E 247 249 2
E 248 249 1
E 248 251 2
E 249 254 2
E 249 262 7
E 250 252 1
E 251 253 1
E 251 254 1
E 253 255 1
E 254 255 1
E 255 266 7
E 256 258 1
E 257 260 1
E 257 261 1
E 258 336 145
E 259 263 1
E 259 281 19
E 260 264 1
E 261 264 1
E 261 270 14
E 262 265 1
E 262 266 3
E 263 271 14
E 263 285 19
E 264 272 14
E 265 268 3
E 265 274 14
E 266 267 1
E 266 268 1
E 267 269 1
E 267 282 15
E 268 269 1
E 268 280 14
E 269 283 14
E 269 286 15
E 270 272 1
E 270 273 1
E 271 275 1
E 271 296 19
E 272 276 1
E 273 276 1
E 274 277 1
E 274 280 3
E 275 298 19
E 277 284 3
E 278 279 1
E 278 288 4
E 279 290 4
E 279 294 14
E 280 283 1
E 280 284 1
E 281 285 1
E 282 286 1
E 282 289 2
E 283 287 1
E 283 297 15
E 284 287 1
E 284 341 145
E 285 296 14
E 286 291 2
E 286 297 14
E 287 299 15
E 288 290 1
E 289 291 1
E 290 300 14
E 291 301 14
E 292 293 1
E 292 304 10
E 293 306 10
E 293 309 14
E 294 295 1
E 294 300 4
E 295 302 4
E 295 305 7
E 296 298 1
E 297 299 1
E 297 301 2
E 299 303 2
E 299 349 145
E 300 302 1
E 301 303 1
E 304 306 1
E 305 307 1
E 306 316 14
E 307 317 14
E 308 310 1
E 308 312 2
E 309 311 1
E 309 316 10
E 310 313 2
E 310 320 14
E 311 318 10
E 312 313 1
E 313 322 14
E 314 315 1
E 315 325 14
E 316 318 1
E 317 319 1
E 319 364 145
E 320 321 1
E 320 322 2
E 321 323 2
E 321 376 168
E 322 323 1
E 324 326 1
E 324 328 2
E 325 327 1
E 326 329 2
E 326 330 14
E 328 329 1
E 329 332 14
E 330 331 1
E 330 332 2
E 331 333 2
E 331 383 168
E 332 333 1
E 334 335 1
E 335 403 168
E 336 337 1
E 336 338 15
E 337 339 15
E 338 339 1
E 339 344 14
E 340 342 1
E 341 343 1
E 341 349 16
E 342 346 14
E 343 347 14
E 343 351 16
E 344 345 1
E 346 348 1
E 347 350 1
E 347 358 16
E 349 351 1
E 350 356 7
E 350 359 16
E 351 358 14
E 352 353 1
E 352 364 18
E 353 360 14
E 353 365 18
E 354 355 1
E 354 356 3
E 355 357 3
E 355 362 14
E 356 357 1
E 357 366 14
E 358 359 1
E 360 361 1
E 360 372 18
E 361 373 18
E 362 363 1
E 362 366 3
E 363 367 3
E 364 365 1
E 364 370 6
E 365 371 6
E 365 372 14
E 366 367 1
E 367 378 30
E 368 369 1
E 369 374 14
E 370 371 1
E 370 376 21
E 371 377 21
E 372 373 1
E 374 375 1
E 376 377 1
E 378 379 1
E 379 382 14
E 380 381 1
E 380 383 12
E 381 385 12
E 382 384 1
E 382 429 66
E 383 385 1
E 384 390 7
E 384 431 66
E 385 396 14
E 386 388 1
E 386 392 5
E 387 389 1
E 388 394 5
E 388 399 14
E 389 400 14
E 390 391 1
E 390 435 66
E 391 398 8
E 391 436 66
E 392 393 1
E 392 394 1
E 393 395 1
E 393 403 11
E 394 395 1
E 395 404 11
E 395 407 14
E 396 397 1
E 398 405 6
E 398 450 89
E 399 401 1
E 399 407 6
E 400 402 1
E 401 409 6
E 401 411 7
E 402 429 45
E 403 404 1
E 404 415 14
E 405 406 1
E 406 425 30
E 407 409 1
E 407 415 11
E 408 410 1
E 408 411 2
E 409 413 7
E 409 416 11
E 410 412 2
E 410 417 14
E 411 412 1
E 411 413 6
E 412 414 6
E 412 419 14
E 413 414 1
E 414 423 14
E 415 416 1
E 417 418 1
E 417 419 2
E 418 420 2
E 419 420 1
E 419 423 6
E 420 424 6
E 421 422 1
E 422 427 14
E 423 424 1
E 424 439 30
E 425 426 1
E 426 433 14
E 427 428 1
E 427 430 5
E 428 432 5
E 428 444 30
E 429 431 1
E 430 432 1
E 431 435 7
E 433 434 1
E 434 437 7
E 435 436 1
E 437 438 1
E 438 443 14
E 439 440 1
E 439 441 11
E 440 442 11
E 440 447 14
E 441 442 1
E 441 444 2
E 442 446 2
E 442 449 14
E 443 445 1
E 444 446 1
E 446 452 14
E 447 448 1
E 447 449 11
E 448 451 11
E 449 451 1
E 449 452 2
E 451 453 2
E 451 454 7
E 452 453 1
E 453 456 7
E 454 455 1
E 454 456 2
E 455 457 2
E 456 457 1
E 458 459 1
E 458 460 11
E 459 461 11
E 459 470 30
E 460 461 1
E 460 462 2
E 461 463 2
E 461 478 30
E 462 463 1
E 464 465 1
E 465 472 14
E 466 468 1
E 466 470 6
E 467 469 1
E 468 471 6
E 468 474 14
E 469 475 14
E 470 471 1
E 470 478 11
E 471 479 11
E 471 480 14
E 472 473 1
E 474 476 1
E 474 480 6
E 475 477 1
E 476 482 6
E 478 479 1
E 479 486 14
E 480 482 1
E 480 486 11
E 481 483 1
E 482 487 11
E 483 488 14
E 484 485 1
E 485 490 14
E 486 487 1
E 488 489 1
E 490 491 1
E 492 493 1
E 493 494 14
E 494 495 1
E 1 496 100000
E 2 496 100000
E 3 496 100000
E 4 496 100000
E 5 497 100000
E 6 497 100000
E 7 497 100000
E 8 497 100000
E 9 498 100000
E 10 498 100000
E 11 498 100000
E 12 498 100000
E 13 499 100000
E 14 499 100000
E 15 499 100000
E 16 499 100000
E 17 500 100000
E 18 500 100000
E 19 500 100000
E 20 500 100000
E 21 501 100000
E 22 501 100000
E 23 501 100000
E 24 501 100000
E 25 502 100000
E 26 502 100000
E 27 502 100000
E 28 502 100000
E 29 503 100000
E 30 503 100000
E 31 503 100000
E 32 503 100000
E 33 504 100000
E 34 504 100000
E 35 504 100000
E 36 504 100000
E 37 505 100000
E 38 505 100000
E 39 506 100000
E 40 506 100000
E 41 506 100000
E 42 506 100000
E 43 507 100000
E 44 507 100000
E 45 507 100000
E 46 507 100000
E 47 508 100000
E 48 508 100000
E 49 508 100000
E 50 508 100000
E 51 509 100000
E 52 509 100000
E 53 509 100000
E 54 509 100000
E 55 510 100000
E 56 510 100000
E 57 510 100000
E 58 510 100000
E 59 511 100000
E 60 511 100000
E 61 511 100000
E 62 511 100000
E 63 512 100000
E 64 512 100000
E 65 512 100000
E 66 512 100000
E 67 513 100000
E 68 513 100000
E 69 513 100000
E 70 513 100000
E 71 514 100000
E 72 514 100000
E 73 514 100000
E 74 514 100000
E 75 515 100000
E 76 515 100000
E 77 515 100000
E 78 515 100000
E 79 516 100000
E 80 516 100000
E 81 516 100000
E 82 516 100000
E 83 517 100000
E 84 517 100000
E 85 517 100000
E 86 517 100000
E 87 518 100000
E 88 518 100000
E 89 518 100000
E 90 518 100000
E 91 519 100000
E 92 519 100000
E 93 519 100000
E 94 519 100000
E 95 520 100000
E 96 520 100000
E 97 520 100000
E 98 520 100000
E 99 521 100000
E 100 521 100000
E 101 521 100000
E 102 521 100000
E 103 522 100000
E 104 522 100000
E 105 522 100000
E 106 522 100000
E 107 523 100000
E 108 523 100000
E 109 523 100000
E 110 523 100000
E 111 524 100000
E 112 524 100000
E 113 524 100000
E 114 524 100000
E 115 525 100000
E 116 525 100000
E 117 525 100000
E 118 525 100000
E 119 526 100000
E 120 526 100000
E 121 526 100000
E 122 526 100000
E 123 527 100000
E 124 527 100000
E 125 527 100000
E 126 527 100000
E 127 528 100000
E 128 528 100000
E 129 528 100000
E 130 528 100000
E 131 529 100000
E 132 529 100000
E 133 529 100000
E 134 529 100000
E 135 530 100000
E 136 530 100000
E 137 530 100000
E 138 530 100000
E 139 531 100000
E 140 531 100000
E 141 531 100000
E 142 531 100000
E 143 532 100000
E 144 532 100000
E 145 532 100000
E 146 532 100000
E 147 533 100000
E 148 533 100000
E 149 533 100000
E 150 533 100000
E 151 534 100000
E 152 534 100000
E 153 534 100000
E 154 534 100000
E 155 535 100000
E 156 535 100000
E 157 535 100000
E 158 535 100000
E 159 536 100000
E 160 536 100000
E 161 536 100000
E 162 536 100000
E 163 537 100000
E 164 537 100000
E 165 537 100000
E 166 537 100000
E 167 538 100000
E 168 538 100000
E 169 538 100000
E 170 538 100000
E 171 539 100000
E 172 539 100000
E 173 539 100000
E 174 539 100000
E 175 540 100000
E 176 540 100000
E 177 540 100000
E 178 540 100000
E 179 541 100000
E 180 541 100000
E 181 541 100000
E 182 541 100000
E 183 542 100000
E 184 542 100000
E 185 542 100000
E 186 542 100000
E 187 543 100000
E 188 543 100000
E 189 543 100000
E 190 543 100000
E 191 544 100000
E 192 544 100000
E 193 544 100000
E 194 544 100000
E 195 545 100000
E 196 545 100000
E 197 545 100000
E 198 545 100000
E 199 546 100000
E 200 546 100000
E 201 546 100000
E 202 546 100000
E 203 547 100000
E 204 547 100000
E 205 547 100000
E 206 547 100000
E 207 505 100000
E 208 505 100000
END 

SECTION Terminals 
Terminals 52
TP 496 522
TP 497 523
TP 498 524
TP 499 525
TP 500 526
TP 501 527
TP 502 528
TP 503 529
TP 504 530
TP 505 531
TP 506 532
TP 507 533
TP 508 534
TP 509 535
TP 510 536
TP 511 537
TP 512 538
TP 513 539
TP 514 540
TP 515 541
TP 516 542
TP 517 543
TP 518 544
TP 519 545
TP 520 546
TP 521 547
END 
